

pair_coeff 	1 1 lj/cut 0.066 3.5 12
pair_coeff 	1 2 lj/cut 0.066 3.5 12
pair_coeff 	1 3 lj/cut 0.066 3.5 12
pair_coeff 	1 4 lj/cut 0.0444972 2.95804 12
pair_coeff 	1 5 lj/cut 0.0444972 3.01662 12
pair_coeff 	1 6 lj/cut 0.0444972 2.77489 12
pair_coeff 	1 7 lj/cut 0.105925 3.37268 12
pair_coeff 	1 8 lj/cut 0.105925 3.27796 12
pair_coeff 	1 9 lj/cut 0 0 12
pair_coeff 	1 10 lj/cut 0.0988332 3.63249 12
pair_coeff 	2 2 lj/cut 0.066 3.5 12
pair_coeff 	2 3 lj/cut 0.066 3.5 12
pair_coeff 	2 4 lj/cut 0.0444972 2.95804 12
pair_coeff 	2 5 lj/cut 0.0444972 3.01662 12
pair_coeff 	2 6 lj/cut 0.0444972 2.77489 12
pair_coeff 	2 7 lj/cut 0.105925 3.37268 12
pair_coeff 	2 8 lj/cut 0.105925 3.27796 12
pair_coeff 	2 9 lj/cut 0 0 12
pair_coeff 	2 10 lj/cut 0.0988332 3.63249 12
pair_coeff 	3 3 lj/cut 0.066 3.5 12
pair_coeff 	3 4 lj/cut 0.0444972 2.95804 12
pair_coeff 	3 5 lj/cut 0.0444972 3.01662 12
pair_coeff 	3 6 lj/cut 0.0444972 2.77489 12
pair_coeff 	3 7 lj/cut 0.105925 3.37268 12
pair_coeff 	3 8 lj/cut 0.105925 3.27796 12
pair_coeff 	3 9 lj/cut 0 0 12
pair_coeff 	3 10 lj/cut 0.0988332 3.63249 12
pair_coeff 	4 4 lj/cut 0.03 2.5 12
pair_coeff 	4 5 lj/cut 0.03 2.54951 12
pair_coeff 	4 6 lj/cut 0.03 2.34521 12
pair_coeff 	4 7 lj/cut 0.0714143 2.85044 12
pair_coeff 	4 8 lj/cut 0.0714143 2.77038 12
pair_coeff 	4 9 lj/cut 0 0 12
pair_coeff 	4 10 lj/cut 0.0666333 3.07002 12
pair_coeff 	5 5 lj/cut 0.03 2.6 12
pair_coeff 	5 6 lj/cut 0.03 2.39165 12
pair_coeff 	5 7 lj/cut 0.0714143 2.90689 12
pair_coeff 	5 8 lj/cut 0.0714143 2.82524 12
pair_coeff 	5 9 lj/cut 0 0 12
pair_coeff 	5 10 lj/cut 0.0666333 3.13081 12
pair_coeff 	6 6 lj/cut 0.03 2.2 12
pair_coeff 	6 7 lj/cut 0.0714143 2.67395 12
pair_coeff 	6 8 lj/cut 0.0714143 2.59885 12
pair_coeff 	6 9 lj/cut 0 0 12
pair_coeff 	6 10 lj/cut 0.0666333 2.87993 12
pair_coeff 	7 7 lj/cut 0.17 3.25 12
pair_coeff 	7 8 lj/cut 0.17 3.15872 12
pair_coeff 	7 9 lj/cut 0 0 12
pair_coeff 	7 10 lj/cut 0.158619 3.50036 12
pair_coeff 	8 8 lj/cut 0.17 3.07 12
pair_coeff 	8 9 lj/cut 0 0 12
pair_coeff 	8 10 lj/cut 0.158619 3.40204 12
pair_coeff 	9 9 lj/cut 0 0 12
pair_coeff 	9 10 lj/cut 0 0 12
pair_coeff 	10 10 lj/cut 0.148 3.77 12




